32      6       
30      19      28      14      29      16      
0       0       0       0       0       0       0       3       2       3       4       
2       0       3       10      0       0       0       3       15      16      19      
1       0       3       0       7       7       0       3       5       11      20      
4       0       0       10      0       9       0       3       7       14      22      
1       2       0       8       5       0       0       3       6       9       10      
6       3       3       3       0       8       0       1       13      
10      0       8       8       0       0       2       2       8       18      
4       5       0       4       10      2       9       1       17      
3       0       0       0       5       0       1       2       12      24      
4       8       7       0       0       0       0       1       17      
2       0       7       0       2       3       4       1       24      
9       5       3       6       1       2       0       1       26      
8       0       0       3       0       10      5       1       28      
5       6       0       0       0       10      0       1       31      
5       0       0       9       0       9       9       3       17      27      28      
6       0       2       0       0       0       4       1       31      
1       9       0       0       0       1       0       1       30      
7       0       2       4       0       0       0       2       21      25      
7       8       0       9       0       0       0       2       23      29      
8       0       6       6       0       2       0       1       25      
3       8       0       6       3       5       1       1       27      
9       10      0       4       4       7       6       1       28      
5       6       7       0       0       0       0       1       31      
6       10      0       0       10      10      0       2       27      29      
2       0       1       0       0       0       0       1       26      
9       0       6       9       0       0       5       1       29      
8       0       0       0       7       0       5       1       30      
5       3       8       3       3       2       9       1       30      
6       8       0       5       10      0       8       1       32      
2       0       0       10      8       7       10      1       32      
3       0       2       0       0       0       3       1       32      
0       0       0       0       0       0       0       0       